outputs/case_291.model.txt
order_reserve_provision = False
order_director_supervisor_dismissal_or_suspension = False
revoke_statutory_meeting_resolution = False
order_manager_staff_dismissal_or_suspension = False
order_or_prohibit_asset_disposition = False
order_branch_closure = False
restrict_investment = True
bank_violation = True
other_necessary_measures = False
suspend_partial_business = False
correction_and_improvement_ordered = True
business_guidance_necessary = False
guidance_institution_designated = False
notification_to_registration_authority = False
penalty_measures = True
correction_ordered = True
director_supervisor_dismissal_notified = True
penalty = False
violation_occurred = True
business_guidance_needed = False